(set-logic QF_BV)
(declare-fun v1 () (_ BitVec 1))
(declare-fun v2 () (_ BitVec 1))
(declare-fun v3 () (_ BitVec 1))
(declare-fun v4 () (_ BitVec 1))
(declare-fun v5 () (_ BitVec 1))
(declare-fun v6 () (_ BitVec 1))
(declare-fun v7 () (_ BitVec 1))
(declare-fun v8 () (_ BitVec 1))
(declare-fun v9 () (_ BitVec 1))
(declare-fun v10 () (_ BitVec 1))
(declare-fun v11 () (_ BitVec 1))
(declare-fun v12 () (_ BitVec 1))
(declare-fun v13 () (_ BitVec 1))
(declare-fun v14 () (_ BitVec 1))
(declare-fun v15 () (_ BitVec 1))
(declare-fun v16 () (_ BitVec 1))
(define-fun $e17 () (_ BitVec 1) (bvand v1 v10))
(define-fun $e18 () (_ BitVec 1) (bvand v2 v9))
(define-fun $e19 () (_ BitVec 1) (bvand $e17 $e18))
(define-fun $e20 () (_ BitVec 1) (bvand v1 v9))
(define-fun $e21 () (_ BitVec 1) (bvand $e19 $e20))
(define-fun $e22 () (_ BitVec 1) (bvand (bvnot $e21) (bvnot (bvand (bvnot $e19) (bvnot $e20)))))
(define-fun $e23 () (_ BitVec 1) (bvand (bvnot $e19) (bvnot (bvand (bvnot $e17) (bvnot $e18)))))
(define-fun $e24 () (_ BitVec 1) (bvand v1 v11))
(define-fun $e25 () (_ BitVec 1) (bvand v2 v10))
(define-fun $e26 () (_ BitVec 1) (bvand $e24 $e25))
(define-fun $e27 () (_ BitVec 1) (bvand v3 v9))
(define-fun $e28 () (_ BitVec 1) (bvand (bvand (bvnot $e26) (bvnot (bvand $e24 $e27))) (bvnot (bvand $e25 $e27))))
(define-fun $e29 () (_ BitVec 1) (bvand $e23 (bvnot $e28)))
(define-fun $e30 () (_ BitVec 1) (bvand $e22 $e29))
(define-fun $e31 () (_ BitVec 1) (bvand (bvnot $e26) (bvnot (bvand (bvnot $e24) (bvnot $e25)))))
(define-fun $e32 () (_ BitVec 1) (bvand (bvnot (bvand (bvnot $e27) (bvnot $e31))) (bvnot (bvand $e27 $e31))))
(define-fun $e33 () (_ BitVec 1) (bvand v2 v11))
(define-fun $e34 () (_ BitVec 1) (bvand v3 v10))
(define-fun $e35 () (_ BitVec 1) (bvand v1 v12))
(define-fun $e36 () (_ BitVec 1) (bvand $e33 $e35))
(define-fun $e37 () (_ BitVec 1) (bvand (bvnot (bvand $e33 $e34)) (bvand (bvnot $e36) (bvnot (bvand $e34 $e35)))))
(define-fun $e38 () (_ BitVec 1) (bvand $e32 (bvnot $e37)))
(define-fun $e39 () Bool (= $e23 $e28))
(define-fun $e40 () (_ BitVec 1) (bvand $e38 (ite $e39 #b1 #b0)))
(define-fun $e41 () (_ BitVec 1) (bvand (bvnot $e30) (bvnot (bvand (bvnot $e22) (bvnot $e29)))))
(define-fun $e42 () (_ BitVec 1) (bvand $e40 $e41))
(define-fun $e43 () Bool (= $e32 $e37))
(define-fun $e44 () (_ BitVec 1) (bvand (bvnot $e36) (bvnot (bvand (bvnot $e33) (bvnot $e35)))))
(define-fun $e45 () (_ BitVec 1) (bvand (bvnot (bvand (bvnot $e34) (bvnot $e44))) (bvnot (bvand $e34 $e44))))
(define-fun $e46 () (_ BitVec 1) (bvand v4 v10))
(define-fun $e47 () (_ BitVec 1) (bvand v5 v9))
(define-fun $e48 () (_ BitVec 1) (bvand $e46 $e47))
(define-fun $e49 () (_ BitVec 1) (bvand v1 v13))
(define-fun $e50 () (_ BitVec 1) (bvand v2 v12))
(define-fun $e51 () (_ BitVec 1) (bvand $e49 $e50))
(define-fun $e52 () (_ BitVec 1) (bvand v3 v11))
(define-fun $e53 () (_ BitVec 1) (bvand (bvand (bvnot $e51) (bvnot (bvand $e49 $e52))) (bvnot (bvand $e50 $e52))))
(define-fun $e54 () (_ BitVec 1) (bvand (bvnot (bvand $e45 $e48)) (bvand (bvnot (bvand $e48 (bvnot $e53))) (bvnot (bvand $e45 (bvnot $e53))))))
(define-fun $e55 () (_ BitVec 1) (bvand (ite $e43 #b1 #b0) (bvnot $e54)))
(define-fun $e56 () (_ BitVec 1) (bvand (bvnot $e40) (bvnot (bvand (bvnot $e38) (bvnot (ite $e39 #b1 #b0))))))
(define-fun $e57 () (_ BitVec 1) (bvand $e55 $e56))
(define-fun $e58 () Bool (= (ite $e43 #b1 #b0) $e54))
(define-fun $e59 () Bool (= $e48 $e53))
(define-fun $e60 () (_ BitVec 1) (bvand (bvnot (bvand (bvnot $e45) (bvnot (ite $e59 #b1 #b0)))) (bvnot (bvand $e45 (ite $e59 #b1 #b0)))))
(define-fun $e61 () (_ BitVec 1) (bvand v4 v9))
(define-fun $e62 () (_ BitVec 1) (bvand v4 v11))
(define-fun $e63 () (_ BitVec 1) (bvand v5 v10))
(define-fun $e64 () (_ BitVec 1) (bvand $e62 $e63))
(define-fun $e65 () (_ BitVec 1) (bvand v6 v9))
(define-fun $e66 () (_ BitVec 1) (bvand (bvand (bvnot $e64) (bvnot (bvand $e62 $e65))) (bvnot (bvand $e63 $e65))))
(define-fun $e67 () (_ BitVec 1) (bvand v1 v14))
(define-fun $e68 () (_ BitVec 1) (bvand v2 v13))
(define-fun $e69 () (_ BitVec 1) (bvand $e67 $e68))
(define-fun $e70 () (_ BitVec 1) (bvand v3 v12))
(define-fun $e71 () (_ BitVec 1) (bvand (bvand (bvnot $e69) (bvnot (bvand $e67 $e70))) (bvnot (bvand $e68 $e70))))
(define-fun $e72 () (_ BitVec 1) (bvand (bvnot $e66) (bvnot $e71)))
(define-fun $e73 () (_ BitVec 1) (bvand (bvnot $e51) (bvnot (bvand (bvnot $e49) (bvnot $e50)))))
(define-fun $e74 () (_ BitVec 1) (bvand (bvnot (bvand (bvnot $e52) (bvnot $e73))) (bvnot (bvand $e52 $e73))))
(define-fun $e75 () (_ BitVec 1) (bvand (bvand (bvnot $e72) (bvnot (bvand (bvnot $e71) $e74))) (bvnot (bvand (bvnot $e66) $e74))))
(define-fun $e76 () (_ BitVec 1) (bvand (bvnot (bvand $e60 $e61)) (bvand (bvnot (bvand $e60 (bvnot $e75))) (bvnot (bvand $e61 (bvnot $e75))))))
(define-fun $e77 () Bool (= $e60 $e75))
(define-fun $e78 () (_ BitVec 1) (bvand (bvnot (bvand (bvnot $e61) (bvnot (ite $e77 #b1 #b0)))) (bvnot (bvand $e61 (ite $e77 #b1 #b0)))))
(define-fun $e79 () (_ BitVec 1) (bvand (bvnot $e72) (bvnot (bvand $e66 $e71))))
(define-fun $e80 () (_ BitVec 1) (bvand (bvnot (bvand (bvnot $e74) (bvnot $e79))) (bvnot (bvand $e74 $e79))))
(define-fun $e81 () (_ BitVec 1) (bvand (bvnot $e48) (bvnot (bvand (bvnot $e46) (bvnot $e47)))))
(define-fun $e82 () (_ BitVec 1) (bvand v4 v12))
(define-fun $e83 () (_ BitVec 1) (bvand v5 v11))
(define-fun $e84 () (_ BitVec 1) (bvand $e82 $e83))
(define-fun $e85 () (_ BitVec 1) (bvand v6 v10))
(define-fun $e86 () (_ BitVec 1) (bvand (bvand (bvnot $e84) (bvnot (bvand $e82 $e85))) (bvnot (bvand $e83 $e85))))
(define-fun $e87 () (_ BitVec 1) (bvand v1 v15))
(define-fun $e88 () (_ BitVec 1) (bvand v2 v14))
(define-fun $e89 () (_ BitVec 1) (bvand $e87 $e88))
(define-fun $e90 () (_ BitVec 1) (bvand v3 v13))
(define-fun $e91 () (_ BitVec 1) (bvand (bvand (bvnot $e89) (bvnot (bvand $e87 $e90))) (bvnot (bvand $e88 $e90))))
(define-fun $e92 () (_ BitVec 1) (bvand (bvnot $e86) (bvnot $e91)))
(define-fun $e93 () (_ BitVec 1) (bvand (bvnot $e69) (bvnot (bvand (bvnot $e67) (bvnot $e68)))))
(define-fun $e94 () (_ BitVec 1) (bvand (bvnot (bvand (bvnot $e70) (bvnot $e93))) (bvnot (bvand $e70 $e93))))
(define-fun $e95 () (_ BitVec 1) (bvand (bvand (bvnot $e92) (bvnot (bvand (bvnot $e91) $e94))) (bvnot (bvand (bvnot $e86) $e94))))
(define-fun $e96 () (_ BitVec 1) (bvand (bvnot (bvand $e80 $e81)) (bvand (bvnot (bvand $e80 (bvnot $e95))) (bvnot (bvand $e81 (bvnot $e95))))))
(define-fun $e97 () Bool (= $e80 $e95))
(define-fun $e98 () (_ BitVec 1) (bvand (bvnot (bvand (bvnot $e81) (bvnot (ite $e97 #b1 #b0)))) (bvnot (bvand $e81 (ite $e97 #b1 #b0)))))
(define-fun $e99 () (_ BitVec 1) (bvand (bvnot $e92) (bvnot (bvand $e86 $e91))))
(define-fun $e100 () (_ BitVec 1) (bvand (bvnot (bvand (bvnot $e94) (bvnot $e99))) (bvnot (bvand $e94 $e99))))
(define-fun $e101 () (_ BitVec 1) (bvand (bvnot $e89) (bvnot (bvand (bvnot $e87) (bvnot $e88)))))
(define-fun $e102 () (_ BitVec 1) (bvand (bvnot (bvand (bvnot $e90) (bvnot $e101))) (bvnot (bvand $e90 $e101))))
(define-fun $e103 () (_ BitVec 1) (bvand (bvnot $e84) (bvnot (bvand (bvnot $e82) (bvnot $e83)))))
(define-fun $e104 () (_ BitVec 1) (bvand (bvnot (bvand (bvnot $e85) (bvnot $e103))) (bvnot (bvand $e85 $e103))))
(define-fun $e105 () (_ BitVec 1) (bvand $e102 $e104))
(define-fun $e106 () (_ BitVec 1) (bvand v7 v9))
(define-fun $e107 () (_ BitVec 1) (bvand (bvand (bvnot $e105) (bvnot (bvand $e102 $e106))) (bvnot (bvand $e104 $e106))))
(define-fun $e108 () (_ BitVec 1) (bvand v4 v13))
(define-fun $e109 () (_ BitVec 1) (bvand v5 v12))
(define-fun $e110 () (_ BitVec 1) (bvand $e108 $e109))
(define-fun $e111 () (_ BitVec 1) (bvand v6 v11))
(define-fun $e112 () (_ BitVec 1) (bvand (bvand (bvnot $e110) (bvnot (bvand $e108 $e111))) (bvnot (bvand $e109 $e111))))
(define-fun $e113 () (_ BitVec 1) (bvand v1 v16))
(define-fun $e114 () (_ BitVec 1) (bvand v2 v15))
(define-fun $e115 () (_ BitVec 1) (bvand $e113 $e114))
(define-fun $e116 () (_ BitVec 1) (bvand v3 v14))
(define-fun $e117 () (_ BitVec 1) (bvand (bvand (bvnot $e115) (bvnot (bvand $e113 $e116))) (bvnot (bvand $e114 $e116))))
(define-fun $e118 () (_ BitVec 1) (bvand (bvnot $e112) (bvnot $e117)))
(define-fun $e119 () (_ BitVec 1) (bvand v7 v10))
(define-fun $e120 () (_ BitVec 1) (bvand v8 v9))
(define-fun $e121 () (_ BitVec 1) (bvand $e119 $e120))
(define-fun $e122 () (_ BitVec 1) (bvand (bvand (bvnot $e118) (bvnot (bvand (bvnot $e117) $e121))) (bvnot (bvand (bvnot $e112) $e121))))
(define-fun $e123 () (_ BitVec 1) (bvand (bvnot $e107) (bvnot $e122)))
(define-fun $e124 () (_ BitVec 1) (bvand (bvnot (bvand $e100 (bvnot $e107))) (bvand (bvnot $e123) (bvnot (bvand $e100 (bvnot $e122))))))
(define-fun $e125 () (_ BitVec 1) (bvand (bvnot $e64) (bvnot (bvand (bvnot $e62) (bvnot $e63)))))
(define-fun $e126 () (_ BitVec 1) (bvand (bvnot (bvand (bvnot $e65) (bvnot $e125))) (bvnot (bvand $e65 $e125))))
(define-fun $e127 () (_ BitVec 1) (bvand v5 v13))
(define-fun $e128 () (_ BitVec 1) (bvand v6 v12))
(define-fun $e129 () (_ BitVec 1) (bvand $e127 $e128))
(define-fun $e130 () (_ BitVec 1) (bvand v7 v11))
(define-fun $e131 () (_ BitVec 1) (bvand (bvand (bvnot $e129) (bvnot (bvand $e127 $e130))) (bvnot (bvand $e128 $e130))))
(define-fun $e132 () (_ BitVec 1) (bvand v2 v16))
(define-fun $e133 () (_ BitVec 1) (bvand v3 v15))
(define-fun $e134 () (_ BitVec 1) (bvand $e132 $e133))
(define-fun $e135 () (_ BitVec 1) (bvand v4 v14))
(define-fun $e136 () (_ BitVec 1) (bvand (bvand (bvnot $e134) (bvnot (bvand $e132 $e135))) (bvnot (bvand $e133 $e135))))
(define-fun $e137 () (_ BitVec 1) (bvand (bvnot $e131) (bvnot $e136)))
(define-fun $e138 () (_ BitVec 1) (bvand (bvnot $e115) (bvnot (bvand (bvnot $e113) (bvnot $e114)))))
(define-fun $e139 () (_ BitVec 1) (bvand (bvnot (bvand (bvnot $e116) (bvnot $e138))) (bvnot (bvand $e116 $e138))))
(define-fun $e140 () (_ BitVec 1) (bvand (bvand (bvnot $e137) (bvnot (bvand (bvnot $e136) $e139))) (bvnot (bvand (bvnot $e131) $e139))))
(define-fun $e141 () (_ BitVec 1) (bvand (bvnot $e110) (bvnot (bvand (bvnot $e108) (bvnot $e109)))))
(define-fun $e142 () (_ BitVec 1) (bvand (bvnot (bvand (bvnot $e111) (bvnot $e141))) (bvnot (bvand $e111 $e141))))
(define-fun $e143 () (_ BitVec 1) (bvand (bvnot $e121) (bvnot (bvand (bvnot $e119) (bvnot $e120)))))
(define-fun $e144 () (_ BitVec 1) (bvand $e142 $e143))
(define-fun $e145 () (_ BitVec 1) (bvand (bvnot $e118) (bvnot (bvand $e112 $e117))))
(define-fun $e146 () (_ BitVec 1) (bvand (bvnot (bvand (bvnot $e121) (bvnot $e145))) (bvnot (bvand $e121 $e145))))
(define-fun $e147 () (_ BitVec 1) (bvand (bvand (bvnot (bvand (bvnot $e140) $e144)) (bvnot (bvand (bvnot $e140) $e146))) (bvnot (bvand $e144 $e146))))
(define-fun $e148 () (_ BitVec 1) (bvand (bvnot $e123) (bvnot (bvand $e107 $e122))))
(define-fun $e149 () (_ BitVec 1) (bvand (bvnot (bvand (bvnot $e100) (bvnot $e148))) (bvnot (bvand $e100 $e148))))
(define-fun $e150 () Bool (= $e147 $e149))
(define-fun $e151 () (_ BitVec 1) (bvand (bvnot $e105) (bvnot (bvand (bvnot $e102) (bvnot $e104)))))
(define-fun $e152 () (_ BitVec 1) (bvand (bvnot (bvand (bvnot $e106) (bvnot $e151))) (bvnot (bvand $e106 $e151))))
(define-fun $e153 () (_ BitVec 1) (bvand v6 v13))
(define-fun $e154 () (_ BitVec 1) (bvand v7 v12))
(define-fun $e155 () (_ BitVec 1) (bvand $e153 $e154))
(define-fun $e156 () (_ BitVec 1) (bvand v8 v11))
(define-fun $e157 () (_ BitVec 1) (bvand (bvand (bvnot $e155) (bvnot (bvand $e153 $e156))) (bvnot (bvand $e154 $e156))))
(define-fun $e158 () (_ BitVec 1) (bvand v3 v16))
(define-fun $e159 () (_ BitVec 1) (bvand v4 v15))
(define-fun $e160 () (_ BitVec 1) (bvand $e158 $e159))
(define-fun $e161 () (_ BitVec 1) (bvand v5 v14))
(define-fun $e162 () (_ BitVec 1) (bvand (bvand (bvnot $e160) (bvnot (bvand $e158 $e161))) (bvnot (bvand $e159 $e161))))
(define-fun $e163 () (_ BitVec 1) (bvand (bvnot $e157) (bvnot $e162)))
(define-fun $e164 () (_ BitVec 1) (bvand (bvnot $e134) (bvnot (bvand (bvnot $e132) (bvnot $e133)))))
(define-fun $e165 () (_ BitVec 1) (bvand (bvnot (bvand (bvnot $e135) (bvnot $e164))) (bvnot (bvand $e135 $e164))))
(define-fun $e166 () (_ BitVec 1) (bvand (bvand (bvnot $e163) (bvnot (bvand (bvnot $e162) $e165))) (bvnot (bvand (bvnot $e157) $e165))))
(define-fun $e167 () (_ BitVec 1) (bvand (bvnot $e129) (bvnot (bvand (bvnot $e127) (bvnot $e128)))))
(define-fun $e168 () (_ BitVec 1) (bvand (bvnot (bvand (bvnot $e130) (bvnot $e167))) (bvnot (bvand $e130 $e167))))
(define-fun $e169 () (_ BitVec 1) (bvand v8 v10))
(define-fun $e170 () (_ BitVec 1) (bvand $e168 $e169))
(define-fun $e171 () (_ BitVec 1) (bvand (bvnot $e137) (bvnot (bvand $e131 $e136))))
(define-fun $e172 () (_ BitVec 1) (bvand (bvnot (bvand (bvnot $e139) (bvnot $e171))) (bvnot (bvand $e139 $e171))))
(define-fun $e173 () (_ BitVec 1) (bvand (bvand (bvnot (bvand (bvnot $e166) $e170)) (bvnot (bvand (bvnot $e166) $e172))) (bvnot (bvand $e170 $e172))))
(define-fun $e174 () Bool (= $e140 $e144))
(define-fun $e175 () (_ BitVec 1) (bvand (bvnot (bvand (bvnot $e146) (bvnot (ite $e174 #b1 #b0)))) (bvnot (bvand $e146 (ite $e174 #b1 #b0)))))
(define-fun $e176 () Bool (= $e173 $e175))
(define-fun $e177 () (_ BitVec 1) (bvand (bvnot $e144) (bvnot (bvand (bvnot $e142) (bvnot $e143)))))
(define-fun $e178 () (_ BitVec 1) (bvand v4 v16))
(define-fun $e179 () (_ BitVec 1) (bvand v5 v15))
(define-fun $e180 () (_ BitVec 1) (bvand $e178 $e179))
(define-fun $e181 () (_ BitVec 1) (bvand v6 v14))
(define-fun $e182 () (_ BitVec 1) (bvand (bvand (bvnot $e180) (bvnot (bvand $e178 $e181))) (bvnot (bvand $e179 $e181))))
(define-fun $e183 () (_ BitVec 1) (bvand v7 v13))
(define-fun $e184 () (_ BitVec 1) (bvand v8 v12))
(define-fun $e185 () (_ BitVec 1) (bvand $e183 $e184))
(define-fun $e186 () (_ BitVec 1) (bvand (bvnot $e160) (bvnot (bvand (bvnot $e158) (bvnot $e159)))))
(define-fun $e187 () (_ BitVec 1) (bvand (bvnot (bvand (bvnot $e161) (bvnot $e186))) (bvnot (bvand $e161 $e186))))
(define-fun $e188 () (_ BitVec 1) (bvand (bvand (bvnot (bvand (bvnot $e182) $e185)) (bvnot (bvand (bvnot $e182) $e187))) (bvnot (bvand $e185 $e187))))
(define-fun $e189 () (_ BitVec 1) (bvand (bvnot $e163) (bvnot (bvand $e157 $e162))))
(define-fun $e190 () (_ BitVec 1) (bvand (bvnot (bvand (bvnot $e165) (bvnot $e189))) (bvnot (bvand $e165 $e189))))
(define-fun $e191 () (_ BitVec 1) (bvand (bvnot $e170) (bvnot (bvand (bvnot $e168) (bvnot $e169)))))
(define-fun $e192 () (_ BitVec 1) (bvand (bvand (bvnot (bvand (bvnot $e188) $e190)) (bvnot (bvand (bvnot $e188) $e191))) (bvnot (bvand $e190 $e191))))
(define-fun $e193 () Bool (= $e166 $e170))
(define-fun $e194 () (_ BitVec 1) (bvand (bvnot (bvand (bvnot $e172) (bvnot (ite $e193 #b1 #b0)))) (bvnot (bvand $e172 (ite $e193 #b1 #b0)))))
(define-fun $e195 () Bool (= $e192 $e194))
(define-fun $e196 () Bool (= $e188 $e190))
(define-fun $e197 () (_ BitVec 1) (bvand (bvnot (bvand (bvnot $e191) (bvnot (ite $e196 #b1 #b0)))) (bvnot (bvand $e191 (ite $e196 #b1 #b0)))))
(define-fun $e198 () Bool (= $e182 $e185))
(define-fun $e199 () (_ BitVec 1) (bvand (bvnot (bvand (bvnot $e187) (bvnot (ite $e198 #b1 #b0)))) (bvnot (bvand $e187 (ite $e198 #b1 #b0)))))
(define-fun $e200 () (_ BitVec 1) (bvand (bvnot $e155) (bvnot (bvand (bvnot $e153) (bvnot $e154)))))
(define-fun $e201 () (_ BitVec 1) (bvand (bvnot (bvand (bvnot $e156) (bvnot $e200))) (bvnot (bvand $e156 $e200))))
(define-fun $e202 () (_ BitVec 1) (bvand v5 v16))
(define-fun $e203 () (_ BitVec 1) (bvand v6 v15))
(define-fun $e204 () (_ BitVec 1) (bvand $e202 $e203))
(define-fun $e205 () (_ BitVec 1) (bvand v7 v14))
(define-fun $e206 () (_ BitVec 1) (bvand (bvand (bvnot $e204) (bvnot (bvand $e202 $e205))) (bvnot (bvand $e203 $e205))))
(define-fun $e207 () (_ BitVec 1) (bvand (bvnot $e180) (bvnot (bvand (bvnot $e178) (bvnot $e179)))))
(define-fun $e208 () (_ BitVec 1) (bvand (bvnot (bvand (bvnot $e181) (bvnot $e207))) (bvnot (bvand $e181 $e207))))
(define-fun $e209 () (_ BitVec 1) (bvand (bvnot $e185) (bvnot (bvand (bvnot $e183) (bvnot $e184)))))
(define-fun $e210 () (_ BitVec 1) (bvand (bvand (bvnot (bvand (bvnot $e206) $e208)) (bvnot (bvand (bvnot $e206) $e209))) (bvnot (bvand $e208 $e209))))
(define-fun $e211 () (_ BitVec 1) (bvand (bvnot (bvand $e199 $e201)) (bvand (bvnot (bvand $e199 (bvnot $e210))) (bvnot (bvand $e201 (bvnot $e210))))))
(define-fun $e212 () Bool (= $e206 $e208))
(define-fun $e213 () (_ BitVec 1) (bvand (bvnot (bvand (bvnot $e209) (bvnot (ite $e212 #b1 #b0)))) (bvnot (bvand $e209 (ite $e212 #b1 #b0)))))
(define-fun $e214 () (_ BitVec 1) (bvand (bvnot $e204) (bvnot (bvand (bvnot $e202) (bvnot $e203)))))
(define-fun $e215 () (_ BitVec 1) (bvand (bvnot (bvand (bvnot $e205) (bvnot $e214))) (bvnot (bvand $e205 $e214))))
(define-fun $e216 () (_ BitVec 1) (bvand v6 v16))
(define-fun $e217 () (_ BitVec 1) (bvand v7 v15))
(define-fun $e218 () (_ BitVec 1) (bvand $e216 $e217))
(define-fun $e219 () (_ BitVec 1) (bvand v8 v14))
(define-fun $e220 () (_ BitVec 1) (bvand (bvand (bvnot $e218) (bvnot (bvand $e216 $e219))) (bvnot (bvand $e217 $e219))))
(define-fun $e221 () (_ BitVec 1) (bvand v8 v13))
(define-fun $e222 () (_ BitVec 1) (bvand (bvand (bvnot (bvand $e215 (bvnot $e220))) (bvnot (bvand (bvnot $e220) $e221))) (bvnot (bvand $e215 $e221))))
(define-fun $e223 () (_ BitVec 1) (bvand $e213 (bvnot $e222)))
(define-fun $e224 () Bool (= $e199 $e210))
(define-fun $e225 () (_ BitVec 1) (bvand (bvnot (bvand (bvnot $e201) (bvnot (ite $e224 #b1 #b0)))) (bvnot (bvand $e201 (ite $e224 #b1 #b0)))))
(define-fun $e226 () (_ BitVec 1) (bvand $e223 $e225))
(define-fun $e227 () Bool (= $e213 $e222))
(define-fun $e228 () Bool (= $e215 $e220))
(define-fun $e229 () (_ BitVec 1) (bvand (bvnot (bvand (bvnot $e221) (bvnot (ite $e228 #b1 #b0)))) (bvnot (bvand $e221 (ite $e228 #b1 #b0)))))
(define-fun $e230 () (_ BitVec 1) (bvand (bvnot $e218) (bvnot (bvand (bvnot $e216) (bvnot $e217)))))
(define-fun $e231 () (_ BitVec 1) (bvand (bvnot (bvand (bvnot $e219) (bvnot $e230))) (bvnot (bvand $e219 $e230))))
(define-fun $e232 () (_ BitVec 1) (bvand v8 v15))
(define-fun $e233 () (_ BitVec 1) (bvand v7 v16))
(define-fun $e234 () (_ BitVec 1) (bvand $e232 $e233))
(define-fun $e235 () (_ BitVec 1) (bvand $e231 $e234))
(define-fun $e236 () (_ BitVec 1) (bvand $e229 $e235))
(define-fun $e237 () (_ BitVec 1) (bvand (ite $e227 #b1 #b0) $e236))
(define-fun $e238 () (_ BitVec 15) (concat (concat (concat (concat (concat (concat (concat (concat (concat (concat (concat (concat (concat (concat $e42 $e57) (bvand (ite $e58 #b1 #b0) (bvnot $e76))) (bvand $e78 (bvnot $e96))) (bvand $e98 (bvnot $e124))) (bvnot (bvand (bvnot (bvand $e126 $e149)) (bvand (bvnot (bvand (bvnot $e147) $e149)) (bvnot (bvand $e126 (bvnot $e147))))))) (bvnot (bvand (bvnot (bvand $e152 $e175)) (bvand (bvnot (bvand (bvnot $e173) $e175)) (bvnot (bvand $e152 (bvnot $e173))))))) (bvnot (bvand (bvnot (bvand $e177 $e194)) (bvand (bvnot (bvand (bvnot $e192) $e194)) (bvnot (bvand $e177 (bvnot $e192))))))) (bvand $e197 (bvnot $e211))) $e226) $e237) (bvand (bvnot $e237) (bvnot (bvand (bvnot (ite $e227 #b1 #b0)) (bvnot $e236))))) (bvand (bvnot $e236) (bvnot (bvand (bvnot $e229) (bvnot $e235))))) (bvand (bvnot $e235) (bvnot (bvand (bvnot $e231) (bvnot $e234))))) (bvand (bvnot $e234) (bvnot (bvand (bvnot $e232) (bvnot $e233))))))
(assert (not (= (bvadd (concat (concat (concat (concat (concat (concat (concat (concat (concat (concat (concat (bvnot (bvand (bvnot $e21) (bvnot $e30))) (bvand (bvnot $e42) (bvnot (bvand (bvnot $e40) (bvnot $e41))))) (bvand (bvnot $e57) (bvnot (bvand (bvnot $e55) (bvnot $e56))))) (ite (= (ite $e58 #b1 #b0) $e76) #b1 #b0)) (ite (= $e78 $e96) #b1 #b0)) (ite (= $e98 $e124) #b1 #b0)) (bvand (bvnot (bvand (bvnot $e126) (bvnot (ite $e150 #b1 #b0)))) (bvnot (bvand $e126 (ite $e150 #b1 #b0))))) (bvand (bvnot (bvand (bvnot $e152) (bvnot (ite $e176 #b1 #b0)))) (bvnot (bvand $e152 (ite $e176 #b1 #b0))))) (bvand (bvnot (bvand (bvnot $e177) (bvnot (ite $e195 #b1 #b0)))) (bvnot (bvand $e177 (ite $e195 #b1 #b0))))) (ite (= $e197 $e211) #b1 #b0)) (bvand (bvnot $e226) (bvnot (bvand (bvnot $e223) (bvnot $e225))))) #b00000) (bvand (concat $e238 v8) (concat $e238 v16))) (bvmul (concat (concat (concat (concat (concat (concat (concat (concat #b00000000 v9) v10) v11) v12) v13) v14) v15) v16) (concat (concat (concat (concat (concat (concat (concat (concat #b00000000 v1) v2) v3) v4) v5) v6) v7) v8)))))
(check-sat)
(exit)

